set VV := 0 1 2 3 4 5 6 7 8 9 10 11 12 13 14 15 16 17 18 19 20 21 22 23 ;
set VS := 0 1 2 3 4 5 6 7 8 9 10 11 12 13 14 15 16 17 18 19 20 21 22 23 24 25 26 27 28 29 30 31 32 33 34 35 36 37 38 39 40 41 42 43 44 45 46 47 48 49 50 51 52 ;
param cv := 
0 12
1 16
2 23
3 20
4 10
5 18
6 23
7 25
8 19
9 11
10 22
11 25
12 10
13 12
14 14
15 13
16 25
17 20
18 22
19 17
20 10
21 18
22 23
23 19
;
param cs := 
0 36
1 20
2 28
3 29
4 36
5 29
6 40
7 39
8 34
9 39
10 27
11 32
12 34
13 27
14 31
15 39
16 24
17 32
18 32
19 24
20 22
21 24
22 35
23 26
24 32
25 29
26 23
27 20
28 37
29 35
30 21
31 29
32 40
33 30
34 20
35 23
36 26
37 39
38 34
39 31
40 29
41 22
42 22
43 39
44 25
45 25
46 21
47 29
48 22
49 21
50 21
51 37
52 24
;
param bv:	 0 1 2 3 4 5 6 7 8 9 10 11 12 13 14 15 16 17 18 19 20 21 22 23 := 
		0 0 0 0 0 0 0 0 0 0 0 0 0 0 0 0 23 0 0 0 24 0 0 0 13 
		1 0 0 0 0 18 0 0 0 0 0 16 0 0 0 0 0 0 12 0 0 0 0 0 0 
		2 0 0 0 0 0 0 0 0 0 0 0 0 0 0 0 0 0 0 23 0 0 0 0 0 
		3 0 0 0 0 0 0 0 0 15 0 0 0 0 0 0 0 23 0 0 25 0 0 0 0 
		4 0 0 0 0 0 0 0 0 0 0 0 0 0 0 0 0 25 0 0 0 0 0 0 0 
		5 0 0 0 0 0 0 0 0 0 0 0 0 0 25 0 0 0 0 0 0 0 0 20 0 
		6 0 0 0 0 0 0 0 0 0 0 0 0 0 0 0 0 0 0 11 0 0 11 0 0 
		7 0 0 0 0 0 0 0 0 0 0 10 0 10 0 21 0 0 18 0 0 17 0 16 0 
		8 0 0 0 0 0 0 0 0 0 0 0 0 0 0 0 0 0 0 0 0 0 0 0 0 
		9 0 0 0 0 0 0 0 0 0 0 0 0 0 0 0 0 0 0 0 0 0 14 0 0 
		10 0 0 0 0 0 0 0 0 0 0 0 0 20 0 0 0 0 0 0 0 0 0 0 0 
		11 0 0 0 0 0 0 0 0 0 0 0 0 0 0 0 0 0 0 0 0 0 13 0 0 
		12 0 0 0 0 0 0 0 0 0 0 0 0 0 0 0 0 0 13 17 0 0 15 0 0 
		13 0 0 0 0 0 0 0 0 0 0 0 0 0 0 0 0 0 0 0 0 0 0 0 0 
		14 0 0 0 0 0 0 0 0 0 0 0 0 0 0 0 0 0 0 0 0 0 0 0 0 
		15 0 0 0 0 0 0 0 0 0 0 0 0 0 0 0 0 0 0 0 0 0 0 0 0 
		16 0 0 0 0 0 0 0 0 0 0 0 0 0 0 0 0 0 0 0 0 0 0 0 0 
		17 0 0 0 0 0 0 0 0 0 0 0 0 0 0 0 0 0 0 0 0 0 0 0 0 
		18 0 0 0 0 0 0 0 0 0 0 0 0 0 0 0 0 0 0 0 0 0 0 0 0 
		19 0 0 0 0 0 0 0 0 0 0 0 0 0 0 0 0 0 0 0 0 0 0 0 0 
		20 0 0 0 0 0 0 0 0 0 0 0 0 0 0 0 0 0 0 0 0 0 0 0 0 
		21 0 0 0 0 0 0 0 0 0 0 0 0 0 0 0 0 0 0 0 0 0 0 0 0 
		22 0 0 0 0 0 0 0 0 0 0 0 0 0 0 0 0 0 0 0 0 0 0 0 0 
		23 0 0 0 0 0 0 0 0 0 0 0 0 0 0 0 0 0 0 0 0 0 0 0 0 
;
param bs:	 0 1 2 3 4 5 6 7 8 9 10 11 12 13 14 15 16 17 18 19 20 21 22 23 24 25 26 27 28 29 30 31 32 33 34 35 36 37 38 39 40 41 42 43 44 45 46 47 48 49 50 51 52 := 
		0 0 0 0 0 0 23 0 0 0 0 27 0 0 0 0 0 0 0 0 0 0 0 0 0 0 0 0 0 0 0 0 0 29 0 0 0 0 0 0 0 0 0 0 33 0 0 0 0 23 0 0 0 0 
		1 0 0 0 0 0 0 0 0 0 20 0 0 0 0 0 0 0 0 0 0 0 0 0 0 0 0 0 0 0 0 0 0 0 0 0 0 0 0 0 0 0 0 0 0 0 0 0 0 0 0 0 0 0 
		2 0 0 0 0 0 0 0 0 30 0 0 34 0 0 0 0 0 28 0 0 0 0 34 0 0 0 0 0 0 0 0 0 0 0 0 0 0 30 0 0 0 0 0 0 0 0 0 0 0 0 0 0 0 
		3 0 0 0 0 22 0 0 0 0 0 0 0 24 0 0 0 0 0 0 30 0 0 0 0 0 0 0 0 0 0 0 0 0 0 0 0 0 0 0 32 0 0 33 0 0 0 0 0 0 23 28 39 30 
		4 0 0 0 22 0 0 0 0 0 0 0 36 0 0 32 0 0 0 0 0 0 0 34 0 0 22 0 0 35 0 0 0 0 0 21 0 0 0 0 0 0 0 0 0 0 0 0 0 0 0 0 0 30 
		5 23 0 0 0 0 0 0 0 0 0 0 0 0 0 0 0 0 0 0 23 0 0 0 0 0 0 0 0 0 39 0 0 0 0 0 0 0 0 0 0 27 0 0 0 0 0 0 0 0 0 0 0 0 
		6 0 0 0 0 0 0 0 0 0 0 0 0 0 0 0 0 0 0 0 0 0 0 0 0 0 0 0 0 0 0 30 0 0 0 0 0 0 0 0 0 0 0 0 0 0 0 0 25 0 0 0 0 0 
		7 0 0 0 0 0 0 0 0 0 0 0 0 0 0 0 0 0 0 0 0 0 0 0 0 0 0 0 0 0 0 0 0 0 0 0 0 24 0 0 0 0 0 0 0 0 0 0 0 0 0 0 0 0 
		8 0 0 30 0 0 0 0 0 0 0 27 0 0 0 0 0 0 26 0 0 0 0 31 0 0 0 0 0 0 0 0 35 35 31 22 0 30 0 0 0 0 0 0 0 0 0 0 0 0 0 0 0 0 
		9 0 20 0 0 0 0 0 0 0 0 0 0 0 0 0 29 0 0 26 0 0 0 0 0 0 0 0 0 0 0 0 25 0 0 0 0 0 0 0 0 0 0 0 0 0 0 0 0 36 37 0 0 0 
		10 27 0 0 0 0 0 0 0 27 0 0 0 0 0 0 0 0 0 0 0 0 0 0 0 0 0 0 0 0 0 0 0 0 0 0 28 0 0 34 0 0 0 0 0 36 0 0 0 0 0 0 0 0 
		11 0 0 34 0 36 0 0 0 0 0 0 0 0 0 0 0 0 0 0 0 0 0 0 0 28 40 0 0 0 0 0 0 0 0 0 0 0 0 0 0 0 0 0 0 0 0 0 0 0 0 0 0 0 
		12 0 0 0 24 0 0 0 0 0 0 0 0 0 0 0 0 0 0 0 0 0 0 0 0 0 0 34 33 0 31 0 0 22 21 0 36 0 0 0 0 0 0 0 0 0 0 0 0 31 33 0 0 31 
		13 0 0 0 0 0 0 0 0 0 0 0 0 0 0 0 0 0 0 0 0 0 36 0 0 0 0 0 0 0 0 0 0 0 0 0 0 0 0 0 0 0 0 0 32 0 0 0 0 0 0 36 0 0 
		14 0 0 0 0 32 0 0 0 0 0 0 0 0 0 0 0 0 0 28 0 0 0 0 21 0 0 0 0 0 0 0 0 0 0 0 32 0 0 0 0 0 0 0 0 0 40 0 0 0 0 0 0 0 
		15 0 0 0 0 0 0 0 0 0 29 0 0 0 0 0 0 0 24 0 0 0 0 0 0 0 0 0 0 36 0 0 0 0 0 0 0 0 21 0 0 0 0 32 0 0 0 0 32 0 0 0 0 0 
		16 0 0 0 0 0 0 0 0 0 0 0 0 0 0 0 0 0 0 0 0 0 0 0 0 0 0 20 0 0 28 0 0 0 0 0 0 0 0 0 24 0 0 0 0 0 0 37 38 0 28 0 39 0 
		17 0 0 28 0 0 0 0 0 26 0 0 0 0 0 0 24 0 0 0 0 0 0 0 0 27 0 0 0 0 0 0 0 0 0 0 0 0 0 0 0 0 0 22 0 0 0 0 0 0 0 32 0 0 
		18 0 0 0 0 0 0 0 0 0 26 0 0 0 0 28 0 0 0 0 0 0 0 0 0 40 0 0 0 29 0 0 0 0 0 0 0 0 0 0 0 0 0 0 0 0 0 0 0 0 0 0 0 0 
		19 0 0 0 30 0 23 0 0 0 0 0 0 0 0 0 0 0 0 0 0 23 0 0 0 0 0 0 0 0 0 0 31 0 0 0 38 36 0 0 0 0 0 0 0 0 0 0 0 0 20 0 0 0 
		20 0 0 0 0 0 0 0 0 0 0 0 0 0 0 0 0 0 0 0 23 0 0 0 0 0 0 0 0 0 0 0 0 0 0 0 0 0 0 0 0 0 0 0 0 0 39 0 0 0 0 0 0 0 
		21 0 0 0 0 0 0 0 0 0 0 0 0 0 36 0 0 0 0 0 0 0 0 0 0 0 0 0 0 0 0 0 0 0 0 0 0 0 0 0 0 0 0 0 26 0 0 0 0 0 0 0 0 0 
		22 0 0 34 0 34 0 0 0 31 0 0 0 0 0 0 0 0 0 0 0 0 0 0 0 0 0 0 0 0 0 0 0 34 28 0 0 25 0 0 0 0 0 0 0 0 0 0 0 0 0 0 0 0 
		23 0 0 0 0 0 0 0 0 0 0 0 0 0 0 21 0 0 0 0 0 0 0 0 0 0 0 0 0 0 0 0 0 0 0 0 0 0 0 0 0 0 0 0 0 0 0 0 0 0 0 0 0 0 
		24 0 0 0 0 0 0 0 0 0 0 0 28 0 0 0 0 0 27 40 0 0 0 0 0 0 0 0 28 0 0 0 0 0 23 0 0 0 0 0 0 0 0 0 0 0 0 0 0 0 0 0 0 0 
		25 0 0 0 0 22 0 0 0 0 0 0 40 0 0 0 0 0 0 0 0 0 0 0 0 0 0 0 0 0 0 0 0 0 0 0 0 0 0 0 20 0 0 0 0 0 0 0 0 0 0 0 0 39 
		26 0 0 0 0 0 0 0 0 0 0 0 0 34 0 0 0 20 0 0 0 0 0 0 0 0 0 0 0 0 0 0 0 0 0 0 0 0 0 0 0 0 0 20 0 0 0 0 0 0 26 0 31 0 
		27 0 0 0 0 0 0 0 0 0 0 0 0 33 0 0 0 0 0 0 0 0 0 0 0 28 0 0 0 0 0 0 0 0 0 0 0 0 0 0 0 38 0 0 0 0 0 0 0 32 0 0 0 0 
		28 0 0 0 0 35 0 0 0 0 0 0 0 0 0 0 36 0 0 29 0 0 0 0 0 0 0 0 0 0 0 0 21 0 0 24 0 0 0 0 0 0 0 0 0 0 0 0 0 0 0 0 0 0 
		29 0 0 0 0 0 39 0 0 0 0 0 0 31 0 0 0 28 0 0 0 0 0 0 0 0 0 0 0 0 0 0 0 0 0 0 0 37 0 0 0 0 0 0 0 0 0 0 0 0 0 0 0 0 
		30 0 0 0 0 0 0 30 0 0 0 0 0 0 0 0 0 0 0 0 0 0 0 0 0 0 0 0 0 0 0 0 0 0 0 0 0 0 0 0 0 0 0 0 0 0 0 33 0 38 0 0 28 22 
		31 0 0 0 0 0 0 0 0 35 25 0 0 0 0 0 0 0 0 0 31 0 0 0 0 0 0 0 0 21 0 0 0 25 0 0 0 33 0 21 0 0 0 0 0 0 34 0 35 0 0 0 0 27 
		32 29 0 0 0 0 0 0 0 35 0 0 0 22 0 0 0 0 0 0 0 0 0 34 0 0 0 0 0 0 0 0 25 0 0 0 0 0 0 0 0 0 0 0 0 0 0 0 0 0 33 0 37 0 
		33 0 0 0 0 0 0 0 0 31 0 0 0 21 0 0 0 0 0 0 0 0 0 28 0 23 0 0 0 0 0 0 0 0 0 0 0 0 0 0 0 0 0 0 0 34 0 0 0 0 0 0 0 0 
		34 0 0 0 0 21 0 0 0 22 0 0 0 0 0 0 0 0 0 0 0 0 0 0 0 0 0 0 0 24 0 0 0 0 0 0 0 0 0 0 0 36 0 0 0 0 0 0 0 0 0 0 0 0 
		35 0 0 0 0 0 0 0 0 0 0 28 0 36 0 32 0 0 0 0 38 0 0 0 0 0 0 0 0 0 0 0 0 0 0 0 0 0 40 0 0 0 0 0 0 0 0 0 0 0 0 0 0 26 
		36 0 0 0 0 0 0 0 24 30 0 0 0 0 0 0 0 0 0 0 36 0 0 25 0 0 0 0 0 0 37 0 33 0 0 0 0 0 0 0 0 0 0 0 0 29 0 0 0 0 34 0 0 0 
		37 0 0 30 0 0 0 0 0 0 0 0 0 0 0 0 21 0 0 0 0 0 0 0 0 0 0 0 0 0 0 0 0 0 0 0 40 0 0 20 0 0 0 0 0 0 0 0 0 0 0 0 0 0 
		38 0 0 0 0 0 0 0 0 0 0 34 0 0 0 0 0 0 0 0 0 0 0 0 0 0 0 0 0 0 0 0 21 0 0 0 0 0 20 0 0 0 0 0 0 0 0 0 0 0 0 0 0 0 
		39 0 0 0 32 0 0 0 0 0 0 0 0 0 0 0 0 24 0 0 0 0 0 0 0 0 20 0 0 0 0 0 0 0 0 0 0 0 0 0 0 0 0 0 0 0 0 0 0 0 0 0 0 0 
		40 0 0 0 0 0 27 0 0 0 0 0 0 0 0 0 0 0 0 0 0 0 0 0 0 0 0 0 38 0 0 0 0 0 0 36 0 0 0 0 0 0 0 0 0 0 0 0 0 0 0 37 0 0 
		41 0 0 0 0 0 0 0 0 0 0 0 0 0 0 0 0 0 0 0 0 0 0 0 0 0 0 0 0 0 0 0 0 0 0 0 0 0 0 0 0 0 0 0 36 0 0 0 0 0 0 0 0 0 
		42 0 0 0 33 0 0 0 0 0 0 0 0 0 0 0 32 0 22 0 0 0 0 0 0 0 0 20 0 0 0 0 0 0 0 0 0 0 0 0 0 0 0 0 0 0 30 0 0 0 0 28 0 0 
		43 33 0 0 0 0 0 0 0 0 0 0 0 0 32 0 0 0 0 0 0 0 26 0 0 0 0 0 0 0 0 0 0 0 0 0 0 0 0 0 0 0 36 0 0 0 0 0 0 0 0 0 0 39 
		44 0 0 0 0 0 0 0 0 0 0 36 0 0 0 0 0 0 0 0 0 0 0 0 0 0 0 0 0 0 0 0 0 0 34 0 0 29 0 0 0 0 0 0 0 0 0 30 0 0 0 0 0 0 
		45 0 0 0 0 0 0 0 0 0 0 0 0 0 0 40 0 0 0 0 0 39 0 0 0 0 0 0 0 0 0 0 34 0 0 0 0 0 0 0 0 0 0 30 0 0 0 23 0 22 0 0 0 0 
		46 0 0 0 0 0 0 0 0 0 0 0 0 0 0 0 0 37 0 0 0 0 0 0 0 0 0 0 0 0 0 33 0 0 0 0 0 0 0 0 0 0 0 0 0 30 23 0 0 0 0 40 0 0 
		47 0 0 0 0 0 0 25 0 0 0 0 0 0 0 0 32 38 0 0 0 0 0 0 0 0 0 0 0 0 0 0 35 0 0 0 0 0 0 0 0 0 0 0 0 0 0 0 0 0 0 0 0 24 
		48 23 0 0 0 0 0 0 0 0 36 0 0 31 0 0 0 0 0 0 0 0 0 0 0 0 0 0 32 0 0 38 0 0 0 0 0 0 0 0 0 0 0 0 0 0 22 0 0 0 0 0 0 0 
		49 0 0 0 23 0 0 0 0 0 37 0 0 33 0 0 0 28 0 0 20 0 0 0 0 0 0 26 0 0 0 0 0 33 0 0 0 34 0 0 0 0 0 0 0 0 0 0 0 0 0 0 0 0 
		50 0 0 0 28 0 0 0 0 0 0 0 0 0 36 0 0 0 32 0 0 0 0 0 0 0 0 0 0 0 0 0 0 0 0 0 0 0 0 0 0 37 0 28 0 0 0 40 0 0 0 0 0 0 
		51 0 0 0 39 0 0 0 0 0 0 0 0 0 0 0 0 39 0 0 0 0 0 0 0 0 0 31 0 0 0 28 0 37 0 0 0 0 0 0 0 0 0 0 0 0 0 0 0 0 0 0 0 0 
		52 0 0 0 30 30 0 0 0 0 0 0 0 31 0 0 0 0 0 0 0 0 0 0 0 0 39 0 0 0 0 22 27 0 0 0 26 0 0 0 0 0 0 0 39 0 0 0 24 0 0 0 0 0 
;
